Minimize
  - 6 y_0 - 2 y_1 - 3 y_2 - 4 y_3 - 3 y_4 - 3 y_5 - 4 y_6 - 4 y_7 - 4 y_8
   - 3 y_9 - 3 y_10 - 5 y_11 - 3 y_12 - 4 y_13 - 5 y_14 - 6 y_15 - 2 y_16
   - y_17 - 5 y_18 - 5 y_19 - 4 y_20 - 4 y_21 - 6 y_23 - 5 y_24 - 3 y_25
   - 5 y_26 - 2 y_27 - 2 y_28 - 3 y_30 - 5 y_31 - 5 y_32 - 4 y_33 - 3 y_34
   - 4 y_35 - 3 y_36 - 4 y_37 - 5 y_38 - 3 y_39 - 6 y_40 - 3 y_41 - 5 y_42
   - 4 y_43 - 2 y_45 - y_46 - 4 y_47 - 4 y_48 - 2 y_49 - 6 y_50 - 3 y_51
   - 2 y_52 - 4 y_53 - 4 y_54 - 2 y_55 - 3 y_56 - 5 y_57 - 2 y_58 - 5 y_59
   - 2 y_60 - 4 y_61 - 2 y_62 - 3 y_63 - 5 y_64 - 3 y_65 - 2 y_66 - 5 y_67
   - 5 y_68 - 5 y_69 - 2 y_70 - 3 y_71 - 6 y_72 - 4 y_73 - 5 y_74 - 7 y_75
   - 3 y_76 - 4 y_77 - 4 y_78 - 3 y_79 - 3 y_80 - 3 y_81 - 6 y_82 - 6 y_83
   - 6 y_84 - y_85 - 3 y_86 - 3 y_87 - 4 y_88 - 2 y_89 - 3 y_90 - y_91
   - 6 y_92 - 3 y_93 - 5 y_94 - 4 y_95 - 5 y_96 - 3 y_97 - 5 y_98 - 4 y_99
   + 365 Constant
Subject To
 c_0: y_16 = 1
 c_1_0: y_0 >= 1
 c_1_1: y_1 + y_17 + y_60 >= 1
 c_1_2: y_2 + y_10 + y_36 + y_54 + y_97 >= 1
 c_1_3: y_3 + y_7 >= 1
 c_1_4: y_4 + y_25 + y_80 >= 1
 c_1_5: y_5 >= 1
 c_1_6: y_6 + y_9 >= 1
 c_1_7: y_3 + y_7 >= 1
 c_1_8: y_8 + y_43 >= 1
 c_1_9: y_6 + y_9 >= 1
 c_1_10: y_2 + y_10 + y_97 >= 1
 c_1_11: y_11 >= 1
 c_1_12: y_12 + y_20 + y_48 >= 1
 c_1_13: y_13 >= 1
 c_1_14: y_14 >= 1
 c_1_15: y_15 >= 1
 c_1_16: y_16 + y_60 >= 1
 c_1_17: y_1 + y_17 + y_91 >= 1
 c_1_18: y_18 + y_98 >= 1
 c_1_19: y_19 + y_82 >= 1
 c_1_20: y_12 + y_20 + y_48 >= 1
 c_1_21: y_21 + y_95 >= 1
 c_1_22: y_22 + y_29 + y_44 >= 1
 c_1_23: y_23 + y_84 >= 1
 c_1_24: y_24 >= 1
 c_1_25: y_4 + y_25 + y_79 + y_80 >= 1
 c_1_26: y_26 >= 1
 c_1_27: y_27 + y_66 >= 1
 c_1_28: y_28 + y_46 >= 1
 c_1_29: y_22 + y_29 + y_44 >= 1
 c_1_30: y_30 + y_95 >= 1
 c_1_31: y_31 >= 1
 c_1_32: y_32 + y_67 >= 1
 c_1_33: y_33 >= 1
 c_1_34: y_34 + y_36 + y_97 >= 1
 c_1_35: y_35 >= 1
 c_1_36: y_2 + y_34 + y_36 + y_97 >= 1
 c_1_37: y_37 >= 1
 c_1_38: y_38 + y_64 >= 1
 c_1_39: y_39 >= 1
 c_1_40: y_40 >= 1
 c_1_41: y_41 + y_81 >= 1
 c_1_42: y_42 >= 1
 c_1_43: y_8 + y_43 >= 1
 c_1_44: y_22 + y_29 + y_44 >= 1
 c_1_45: y_45 >= 1
 c_1_46: y_28 + y_46 >= 1
 c_1_47: y_47 >= 1
 c_1_48: y_12 + y_20 + y_48 >= 1
 c_1_49: y_49 >= 1
 c_1_50: y_50 >= 1
 c_1_51: y_51 + y_76 >= 1
 c_1_52: y_52 >= 1
 c_1_53: y_53 >= 1
 c_1_54: y_2 + y_54 >= 1
 c_1_55: y_55 + y_86 >= 1
 c_1_56: y_56 + y_86 >= 1
 c_1_57: y_57 + y_94 >= 1
 c_1_58: y_58 >= 1
 c_1_59: y_59 >= 1
 c_1_60: y_1 + y_16 + y_60 >= 1
 c_1_61: y_61 + y_77 >= 1
 c_1_62: y_62 >= 1
 c_1_63: y_63 >= 1
 c_1_64: y_38 + y_64 >= 1
 c_1_65: y_65 >= 1
 c_1_66: y_27 + y_66 >= 1
 c_1_67: y_32 + y_67 >= 1
 c_1_68: y_68 >= 1
 c_1_69: y_69 >= 1
 c_1_70: y_70 >= 1
 c_1_71: y_71 >= 1
 c_1_72: y_72 >= 1
 c_1_73: y_73 + y_93 >= 1
 c_1_74: y_74 >= 1
 c_1_75: y_75 >= 1
 c_1_76: y_51 + y_76 >= 1
 c_1_77: y_61 + y_77 >= 1
 c_1_78: y_78 + y_99 >= 1
 c_1_79: y_25 + y_79 + y_80 >= 1
 c_1_80: y_4 + y_25 + y_79 + y_80 >= 1
 c_1_81: y_41 + y_81 >= 1
 c_1_82: y_19 + y_82 >= 1
 c_1_83: y_83 >= 1
 c_1_84: y_23 + y_84 >= 1
 c_1_85: y_85 >= 1
 c_1_86: y_55 + y_56 + y_86 >= 1
 c_1_87: y_87 >= 1
 c_1_88: y_88 >= 1
 c_1_89: y_89 >= 1
 c_1_90: y_90 >= 1
 c_1_91: y_17 + y_91 >= 1
 c_1_92: y_92 >= 1
 c_1_93: y_73 + y_93 >= 1
 c_1_94: y_57 + y_94 >= 1
 c_1_95: y_21 + y_30 + y_95 >= 1
 c_1_96: y_96 >= 1
 c_1_97: y_2 + y_10 + y_34 + y_36 + y_97 >= 1
 c_1_98: y_18 + y_98 >= 1
 c_1_99: y_78 + y_99 >= 1
Bounds
 Constant = 1
Binaries
 y_0 y_1 y_2 y_3 y_4 y_5 y_6 y_7 y_8 y_9 y_10 y_11 y_12 y_13 y_14 y_15 y_16
 y_17 y_18 y_19 y_20 y_21 y_22 y_23 y_24 y_25 y_26 y_27 y_28 y_29 y_30 y_31
 y_32 y_33 y_34 y_35 y_36 y_37 y_38 y_39 y_40 y_41 y_42 y_43 y_44 y_45 y_46
 y_47 y_48 y_49 y_50 y_51 y_52 y_53 y_54 y_55 y_56 y_57 y_58 y_59 y_60 y_61
 y_62 y_63 y_64 y_65 y_66 y_67 y_68 y_69 y_70 y_71 y_72 y_73 y_74 y_75 y_76
 y_77 y_78 y_79 y_80 y_81 y_82 y_83 y_84 y_85 y_86 y_87 y_88 y_89 y_90 y_91
 y_92 y_93 y_94 y_95 y_96 y_97 y_98 y_99
End
